Version identifier: 12.10.0.0 | 2019-11-26 | 843d4de
CPXPARAM_Read_DataCheck                          1
CPXPARAM_RandomSeed                              201903125
CPXPARAM_TimeLimit                               7200
Parallel mode: deterministic, using up to 8 threads for concurrent optimization:
 * Starting dual Simplex on 1 thread...
 * Starting Barrier on 6 threads...
 * Starting primal Simplex on 1 thread...
Tried aggregator 1 time.
No LP presolve or aggregator reductions.
Presolve time = 0.00 sec. (4.39 ticks)

Iteration log . . .
Iteration:     1   Dual objective     =           900.000000
Perturbation started.
Iteration:   101   Dual objective     =           900.000000
Iteration:   222   Dual objective     =           900.020393
Iteration:   430   Dual objective     =           900.027802
Iteration:   653   Dual objective     =           900.027806
Iteration:   876   Dual objective     =           900.027809
Iteration:  1100   Dual objective     =           900.027812
Iteration:  1324   Dual objective     =           900.027813
Iteration:  1554   Dual objective     =           900.027815
Iteration:  1788   Dual objective     =           900.027815
Removing perturbation.

Dual simplex solved model.

